
Gurobi 8.1.1 (win64) logging started 11/24/19 13:07:51

Changed value of parameter LogFile to logs/full/ip/full-07-30-1.log
   Prev: gurobi.log  Default: 
Changed value of parameter LogToConsole to 0
   Prev: 1  Min: 0  Max: 1  Default: 1
Changed value of parameter TimeLimit to 3600.0
   Prev: 1e+100  Min: 0.0  Max: 1e+100  Default: 1e+100
Optimize a model with 10206 rows, 4895 columns and 39543 nonzeros
Variable types: 0 continuous, 4895 integer (4873 binary)
Coefficient statistics:
  Matrix range     [1e+00, 1e+03]
  Objective range  [1e+00, 1e+00]
  Bounds range     [1e+00, 1e+00]
  RHS range        [1e+00, 1e+03]
Presolve removed 3 rows and 3 columns
Presolve time: 0.19s
Presolved: 10203 rows, 4892 columns, 39534 nonzeros
Variable types: 0 continuous, 4892 integer (4870 binary)

Root relaxation: objective 4.500000e+00, 1843 iterations, 0.16 seconds

    Nodes    |    Current Node    |     Objective Bounds      |     Work
 Expl Unexpl |  Obj  Depth IntInf | Incumbent    BestBd   Gap | It/Node Time

     0     0    4.50000    0  277          -    4.50000      -     -    1s
H    0     0                      21.0000000    4.50000  78.6%     -    1s
     0     0    7.00000    0   49   21.00000    7.00000  66.7%     -    2s
     0     0    7.00000    0   41   21.00000    7.00000  66.7%     -    2s
     0     0    7.00000    0   56   21.00000    7.00000  66.7%     -    2s
     0     0    7.00000    0   41   21.00000    7.00000  66.7%     -    3s
     0     0    7.00000    0   41   21.00000    7.00000  66.7%     -    3s
     0     0    7.00000    0   39   21.00000    7.00000  66.7%     -    3s
     0     0    7.00000    0   44   21.00000    7.00000  66.7%     -    4s
     0     0    7.00000    0   42   21.00000    7.00000  66.7%     -    4s
     0     0    7.00000    0   55   21.00000    7.00000  66.7%     -    4s
     0     0    7.00000    0   44   21.00000    7.00000  66.7%     -    5s
H    0     0                      19.0000000    7.00000  63.2%     -    5s
H    0     0                      18.0000000    7.00000  61.1%     -    5s
     0     0    7.00000    0   24   18.00000    7.00000  61.1%     -    6s
     0     0    7.00000    0   41   18.00000    7.00000  61.1%     -    6s
     0     0    7.00000    0   28   18.00000    7.00000  61.1%     -    7s
     0     0    7.00000    0   26   18.00000    7.00000  61.1%     -    7s
     0     0    7.00000    0   22   18.00000    7.00000  61.1%     -    7s
     0     0    7.00000    0   22   18.00000    7.00000  61.1%     -    7s
     0     0    7.00000    0   35   18.00000    7.00000  61.1%     -    7s
     0     0    7.00000    0   15   18.00000    7.00000  61.1%     -    8s
H    0     0                      17.0000000    7.00000  58.8%     -   10s
H    0     0                      13.0000000    7.00000  46.2%     -   10s
     0     0    7.00000    0   12   13.00000    7.00000  46.2%     -   10s
H    0     0                       7.0000000    7.00000  0.00%     -   10s

Explored 1 nodes (38477 simplex iterations) in 10.52 seconds
Thread count was 4 (of 4 available processors)

Solution count 7: 7 13 16 ... 21

Optimal solution found (tolerance 1.00e-04)
Best objective 7.000000000000e+00, best bound 7.000000000000e+00, gap 0.0000%
